unsat
(:conflicts            1
 :max-generation       1
 :max-memory           23.07
 :memory               21.05
 :mk-bool-var          315
 :mk-clause            11
 :mk-clause-binary     90
 :num-allocs           5427669
 :num-checks           1
 :quant-instantiations 13
 :rlimit-count         193268
 :time                 0.02)
